experiment/data/lkh-res/Vrp-Set-X-n313/Vrp-Set-X-n313-lkh/0.lkh1.vrp
NAME : 0
COMMENT : CVRP Instance
TYPE : CVRP
DIMENSION : 313
EDGE_WEIGHT_TYPE : EUC_2D
CAPACITY : 248
NODE_COORD_SECTION
1	47100	4400
2	6300	47500
3	76600	50400
4	89500	59500
5	81600	37700
6	46200	59000
7	99700	59600
8	77500	99300
9	1600	9700
10	83900	34800
11	55800	89600
12	42300	91200
13	16900	41100
14	7500	60200
15	40200	5200
16	38800	20800
17	20200	3900
18	51000	84100
19	55500	48400
20	92000	63300
21	36900	71800
22	43200	69600
23	62400	87200
24	47200	32300
25	75300	70100
26	58400	44000
27	29200	66500
28	20200	31000
29	76400	25500
30	66200	48600
31	82200	57500
32	46900	1300
33	64000	16500
34	81400	88600
35	55400	8200
36	33600	74500
37	95000	22900
38	14200	83500
39	40700	93200
40	6900	20500
41	8600	76400
42	20200	16500
43	37600	63200
44	63900	98700
45	77500	9800
46	50300	85500
47	3800	96000
48	21500	7300
49	56600	7800
50	400	51700
51	4400	45700
52	67600	33700
53	33800	56800
54	62300	91100
55	62600	93100
56	9700	4300
57	79900	94200
58	72500	43000
59	9300	95300
60	26400	34700
61	98600	59500
62	63100	61400
63	33100	36200
64	15800	79300
65	76000	43600
66	11500	64100
67	30700	76400
68	46900	81700
69	31500	38800
70	90600	83000
71	56400	2500
72	8800	24600
73	67100	89200
74	18100	13900
75	72300	78400
76	60900	79800
77	17400	40300
78	7600	67100
79	98400	93900
80	83000	57900
81	300	89300
82	17600	16400
83	62500	15800
84	24900	59000
85	66300	34700
86	2100	50000
87	50100	37200
88	57200	21800
89	48300	27000
90	60400	20100
91	54800	28100
92	20500	74500
93	12500	17800
94	87000	93100
95	27600	84600
96	75900	83900
97	7900	10500
98	21800	99200
99	27700	79700
100	54500	6200
101	16100	10200
102	100	82700
103	71900	12800
104	8000	36600
105	1600	73200
106	2400	52100
107	84800	60000
108	58500	59400
109	61800	57700
110	4400	30000
111	48900	23900
112	47900	97800
113	76800	73100
114	27400	3000
115	54600	83700
116	89000	64000
117	59400	30800
118	87800	71600
119	49800	44800
120	14500	9600
121	5400	93500
122	47300	500
123	90600	89900
124	27700	75200
125	43500	25400
126	63000	68600
127	90500	27500
128	52100	40100
129	85000	42500
130	37400	18600
131	71200	43300
132	81400	73000
133	74000	62200
134	68100	7400
135	12000	49000
136	29700	81600
137	37600	53400
138	98200	56000
139	100	33200
140	81500	62500
141	35600	86800
142	65900	99400
143	80400	11000
144	41500	51700
145	10600	84400
146	54900	36600
147	5700	74200
148	84800	73900
149	38100	70000
150	44200	80800
151	86700	40800
152	6700	93000
153	76300	18600
154	58100	9100
155	41600	5600
156	72900	62000
157	16300	7300
158	16000	12900
159	46800	90200
160	69400	73000
161	31400	74800
162	58000	85200
163	70200	65600
164	46400	76800
165	71800	88500
166	75800	73600
167	48900	89100
168	11000	4000
169	27900	99500
170	18400	12300
171	18100	23400
172	69800	72000
173	4900	8300
174	37800	83300
175	86900	74200
176	70800	85400
177	94500	83000
178	50300	91400
179	28500	23300
180	47900	92700
181	44000	76800
182	20500	9600
183	50500	11300
184	15400	17100
185	57400	75700
186	49100	86400
187	16800	6300
188	100	23500
189	17300	23500
190	68900	67900
191	73300	73500
192	44900	71700
193	24100	17300
194	46600	98100
195	22200	11500
196	43300	64700
197	42500	75400
198	14500	18800
199	39300	88300
200	15000	14500
201	24700	10400
202	67300	62700
203	81100	55000
204	6000	20700
205	71600	61400
206	47700	87900
207	53000	97000
208	81400	65400
209	71700	66000
210	24700	17800
211	17300	13400
212	63500	94700
213	33500	10800
214	1600	24100
215	69200	71900
216	53900	90300
217	51100	84500
218	73200	74900
219	63700	58600
220	48200	94500
221	19600	13200
222	82900	78700
223	49100	88600
224	11300	19200
225	65500	66600
226	3500	14000
227	70600	72100
228	13600	19200
229	84500	81800
230	48200	93600
231	76400	63000
232	34100	84600
233	12400	6500
234	11500	17700
235	68100	74700
236	32000	66000
237	59900	80900
238	88100	70100
239	41700	88000
240	62900	97200
241	14900	7700
242	5800	4500
243	21200	8900
244	54900	70000
245	41100	82000
246	49900	82100
247	8000	16200
248	41200	96300
249	63700	81200
250	68900	88100
251	69800	71700
252	51800	89700
253	71800	79800
254	51600	90300
255	15600	14800
256	5100	20800
257	48100	84300
258	73700	66500
259	56600	79000
260	44800	90600
261	71300	80000
262	21000	25100
263	64000	72400
264	11500	16800
265	49000	81600
266	67400	72400
267	62400	84500
268	55800	67400
269	64300	71300
270	84300	64600
271	79700	78400
272	45400	85500
273	53600	84500
274	45000	94400
275	48400	80900
276	13700	9100
277	74100	60900
278	90400	77200
279	67300	68700
280	77300	79000
281	72600	73600
282	77800	84500
283	49400	90100
284	11800	29600
285	41600	91100
286	65600	82500
287	24400	24500
288	61900	68800
289	37800	17700
290	67700	72300
291	58500	96000
292	34800	76200
293	30200	27700
294	45300	86700
295	24400	14600
296	67200	91400
297	38100	46500
298	48400	87500
299	64000	69400
300	69800	73200
301	29300	86600
302	56500	56000
303	68100	61100
304	57500	80400
305	6500	8700
306	19300	13200
307	7700	21200
308	14200	15000
309	14800	14200
310	48500	99300
311	49500	98800
312	56900	80200
313	70200	78500
DEMAND_SECTION
1	0
2	94
3	56
4	73
5	25
6	4
7	97
8	82
9	57
10	41
11	98
12	45
13	86
14	5
15	83
16	99
17	78
18	64
19	44
20	69
21	25
22	44
23	64
24	59
25	72
26	10
27	26
28	56
29	1
30	41
31	69
32	62
33	29
34	77
35	20
36	46
37	47
38	19
39	48
40	95
41	21
42	56
43	13
44	79
45	21
46	66
47	2
48	61
49	2
50	21
51	51
52	33
53	43
54	55
55	89
56	54
57	62
58	41
59	49
60	71
61	100
62	67
63	64
64	40
65	50
66	40
67	4
68	19
69	86
70	76
71	34
72	82
73	90
74	68
75	79
76	80
77	75
78	38
79	87
80	69
81	48
82	78
83	4
84	11
85	43
86	9
87	9
88	14
89	57
90	5
91	9
92	14
93	93
94	72
95	8
96	96
97	82
98	8
99	3
100	11
101	58
102	7
103	50
104	76
105	2
106	35
107	81
108	54
109	72
110	87
111	82
112	47
113	70
114	56
115	74
116	79
117	33
118	92
119	55
120	72
121	40
122	57
123	76
124	47
125	88
126	55
127	45
128	25
129	35
130	53
131	37
132	65
133	63
134	27
135	64
136	17
137	5
138	85
139	95
140	96
141	49
142	52
143	13
144	27
145	36
146	18
147	21
148	67
149	30
150	27
151	13
152	24
153	39
154	19
155	93
156	96
157	91
158	54
159	13
160	91
161	38
162	93
163	54
164	9
165	55
166	62
167	44
168	79
169	22
170	61
171	82
172	61
173	63
174	30
175	72
176	60
177	73
178	94
179	61
180	49
181	44
182	65
183	24
184	70
185	80
186	15
187	77
188	100
189	73
190	80
191	71
192	25
193	68
194	24
195	99
196	11
197	45
198	85
199	40
200	55
201	85
202	63
203	79
204	77
205	57
206	42
207	92
208	91
209	74
210	61
211	77
212	56
213	72
214	97
215	76
216	73
217	61
218	100
219	70
220	17
221	98
222	89
223	1
224	54
225	58
226	82
227	94
228	65
229	68
230	11
231	76
232	7
233	56
234	64
235	56
236	32
237	96
238	65
239	50
240	96
241	81
242	74
243	75
244	66
245	46
246	49
247	65
248	23
249	89
250	70
251	52
252	93
253	66
254	54
255	81
256	56
257	29
258	59
259	57
260	20
261	57
262	68
263	81
264	72
265	16
266	89
267	85
268	54
269	88
270	77
271	87
272	17
273	71
274	34
275	23
276	55
277	99
278	95
279	65
280	71
281	63
282	85
283	7
284	51
285	28
286	66
287	68
288	65
289	96
290	81
291	87
292	22
293	91
294	24
295	67
296	81
297	58
298	43
299	76
300	52
301	10
302	65
303	80
304	85
305	75
306	51
307	94
308	53
309	99
310	34
311	18
312	94
313	64
DEPOT_SECTION
1
-1
EOF
