experiment/data/lkh-res/Vrp-Set-X-n313/Vrp-Set-X-n313-lkh/0.lkh1.tour
NAME : 0.9752325.tour
COMMENT : Length = 9752325
COMMENT : Found by LKH-3 [Keld Helsgaun] Tue Apr  9 06:36:10 2024
TYPE : TOUR
DIMENSION : 383
TOUR_SECTION
1
32
49
83
103
153
91
111
327
282
123
79
346
247
139
110
372
309
255
193
343
18
273
162
146
368
80
107
140
377
93
189
171
376
208
118
238
383
96
34
94
358
131
203
31
133
332
33
231
113
25
349
221
184
82
361
101
276
233
168
324
289
130
16
325
252
254
11
331
307
188
224
375
66
78
147
41
152
121
47
81
102
105
14
319
35
26
126
266
209
366
87
296
73
286
357
246
217
46
150
181
351
76
304
185
374
202
288
244
268
341
144
137
236
27
135
2
340
195
120
243
342
173
9
242
56
326
40
256
214
367
196
22
192
197
292
36
21
149
322
154
10
129
127
37
143
45
134
333
227
70
177
90
330
88
125
201
48
339
249
267
115
317
109
108
302
89
335
163
166
132
148
380
212
240
142
19
356
257
206
167
283
178
223
186
265
373
225
279
190
85
382
29
7
4
270
352
42
228
264
200
371
284
104
51
86
50
106
370
262
28
293
117
350
161
67
95
301
169
98
59
145
38
64
92
337
84
124
99
136
232
141
199
174
53
364
5
151
55
54
23
328
234
308
158
211
360
164
216
291
44
321
281
176
165
250
355
253
75
218
359
157
187
17
345
305
226
97
347
24
30
3
65
58
338
235
313
261
191
379
138
278
229
362
299
269
263
323
213
15
155
315
68
159
194
112
310
311
207
348
275
298
180
230
220
274
248
39
353
259
312
237
336
295
306
74
170
354
72
204
198
381
52
280
57
8
369
290
160
300
183
318
258
251
172
215
334
156
303
219
316
116
20
61
365
271
222
175
363
69
13
77
314
122
210
287
179
344
277
205
62
128
378
60
63
297
119
320
71
100
182
241
114
329
6
272
294
260
12
285
239
245
43
-1
EOF
